Test title 
1.000
10.5 0.000 0.000
0.000 10.5 0.000
0.000 0.000 10.5
Ni Cu 
103 5 
Direct
0.166667 0.500000 0.000000 
0.500000 0.000000 0.500000 
0.166667 0.000000 0.166667 
0.833333 0.833333 0.333333 
0.666667 0.666667 0.333333 
0.833333 0.500000 0.000000 
0.166667 0.500000 0.666667 
0.333333 0.500000 0.833333 
0.500000 0.166667 0.666667 
0.333333 0.000000 0.000000 
0.500000 0.166667 0.000000 
0.666667 0.500000 0.500000 
0.000000 0.166667 0.833333 
0.833333 0.166667 0.333333 
0.333333 0.166667 0.500000 
0.833333 0.000000 0.500000 
0.833333 0.166667 0.000000 
0.666667 0.333333 0.000000 
0.833333 0.166667 0.666667 
0.666667 0.000000 0.000000 
0.000000 0.666667 0.666667 
0.666667 0.500000 0.833333 
0.333333 0.666667 0.000000 
0.833333 0.000000 0.166667 
0.333333 0.000000 0.333333 
0.333333 0.833333 0.833333 
0.666667 0.333333 0.333333 
0.166667 0.833333 0.666667 
0.666667 0.000000 0.333333 
0.666667 0.166667 0.833333 
0.000000 0.333333 0.000000 
0.333333 0.833333 0.500000 
0.333333 0.333333 0.000000 
0.000000 0.833333 0.166667 
0.166667 0.833333 0.333333 
0.166667 0.666667 0.500000 
0.000000 0.500000 0.166667 
0.666667 0.500000 0.166667 
0.000000 0.333333 0.333333 
0.500000 0.666667 0.166667 
0.500000 0.833333 0.000000 
0.166667 0.500000 0.333333 
0.333333 0.833333 0.166667 
0.333333 0.666667 0.666667 
0.833333 0.333333 0.833333 
0.000000 0.500000 0.833333 
0.833333 0.833333 0.666667 
0.500000 0.833333 0.333333 
0.333333 0.333333 0.666667 
0.333333 0.000000 0.666667 
0.000000 0.000000 0.333333 
0.833333 0.333333 0.500000 
0.500000 0.333333 0.166667 
0.500000 0.166667 0.333333 
0.000000 0.666667 0.000000 
0.166667 0.833333 0.000000 
0.333333 0.666667 0.333333 
0.833333 0.500000 0.333333 
0.500000 0.333333 0.833333 
0.500000 0.833333 0.666667 
0.333333 0.500000 0.500000 
0.333333 0.500000 0.166667 
0.500000 0.666667 0.833333 
0.666667 0.833333 0.500000 
0.500000 0.666667 0.500000 
0.666667 0.666667 0.000000 
0.166667 0.000000 0.500000 
0.666667 0.833333 0.833333 
0.000000 0.166667 0.166667 
0.000000 0.000000 0.000000 
0.166667 0.333333 0.166667 
0.500000 0.333333 0.500000 
0.333333 0.333333 0.333333 
0.833333 0.000000 0.833333 
0.833333 0.500000 0.666667 
0.666667 0.666667 0.666667 
0.000000 0.500000 0.500000 
0.833333 0.666667 0.166667 
0.500000 0.000000 0.166667 
0.500000 0.000000 0.833333 
0.333333 0.166667 0.166667 
0.500000 0.500000 0.666667 
0.166667 0.166667 0.333333 
0.166667 0.666667 0.166667 
0.000000 0.833333 0.833333 
0.166667 0.333333 0.500000 
0.833333 0.666667 0.500000 
0.000000 0.666667 0.333333 
0.666667 0.166667 0.166667 
0.000000 0.166667 0.500000 
0.333333 0.166667 0.833333 
0.166667 0.000000 0.833333 
0.000000 0.333333 0.666667 
0.666667 0.333333 0.666667 
0.166667 0.166667 0.666667 
0.166667 0.166667 0.000000 
0.000000 0.833333 0.500000 
0.166667 0.666667 0.833333 
0.833333 0.333333 0.166667 
0.666667 0.166667 0.500000 
0.500000 0.500000 0.333333 
0.500000 0.500000 0.000000 
0.000000 0.000000 0.666667 
0.833333 0.666667 0.833333 
0.166667 0.333333 0.833333 
0.666667 0.000000 0.666667 
0.666667 0.833333 0.166667 
0.833333 0.833333 0.000000 
