title                                   
   1.00000000000000     
     3.8    0.0000000000    0.0000000000000000
     0.00000000000    3.8    0.0000000000000000
     0.0000000000000000    0.0000000000000000    3.8
   Fe  
    2
Direct
0 0 0
0.5 0.5 0.5