Ni                                      
   1.00000000000000     
     3.52387   0.0000000000000000     0.0000000000000000
     0.0000000000000000    3.52387    0.0000000000000000
     0.0000000000000000    0.0000000000000000    3.52387
  Ni
   4
Direct
  0.0000000000000000  0.0000000000000000  0.0000000000000000
  0.0000000000000000  0.5000000000000000  0.5000000000000000
  0.5000000000000000  0.0000000000000000  0.5000000000000000
  0.5000000000000000  0.5000000000000000  0.0000000000000000
 
