title                                   
   1.00000000000000     
     7.7808299999999999    0.0007884860000000    0.0000000000000000
     0.0007910600000000    7.5922999999999998    0.0000000000000000
     0.0000000000000000    0.0000000000000000    3.8734500000000001
   Au   Cu   Ni   Pd   Pt
     3     4     3     3     3
Direct
  0.2449455937844576  0.9971462519695677  0.5000000000000000
  0.2308695929095421  0.5039660729368123  0.5000000000000000
  0.7553600762005601  0.0114192304248988  0.5000000000000000
  0.2461563048664885  0.2563337871527480  0.0000000000000000
  0.2431356837628513  0.7455676022967026  0.0000000000000000
  0.7529729723805829  0.2569758450473358  0.0000000000000000
  0.5025119533127906  0.4993405117500629  0.0000000000000000
  0.0040658331846473  0.2541465652236425  0.5000000000000000
  0.9952470983808439  0.4935042921902948  0.0000000000000000
  0.9927270930795089  0.7464710062280560  0.5000000000000000
  0.0026356982092892  0.0079833416473107  0.0000000000000000
  0.4984342844704983  0.9996781071012464  0.0000000000000000
  0.7678578081127156  0.4882397066591579  0.5000000000000000
  0.4962483371318385  0.2639989311715354  0.5000000000000000
  0.5031653198369170  0.7359978425759834  0.5000000000000000
  0.7636663501194577  0.7392309053612536 -0.0038725167486349
 
  0.00000000E+00  0.00000000E+00  0.00000000E+00
  0.00000000E+00  0.00000000E+00  0.00000000E+00
  0.00000000E+00  0.00000000E+00  0.00000000E+00
  0.00000000E+00  0.00000000E+00  0.00000000E+00
  0.00000000E+00  0.00000000E+00  0.00000000E+00
  0.00000000E+00  0.00000000E+00  0.00000000E+00
  0.00000000E+00  0.00000000E+00  0.00000000E+00
  0.00000000E+00  0.00000000E+00  0.00000000E+00
  0.00000000E+00  0.00000000E+00  0.00000000E+00
  0.00000000E+00  0.00000000E+00  0.00000000E+00
  0.00000000E+00  0.00000000E+00  0.00000000E+00
  0.00000000E+00  0.00000000E+00  0.00000000E+00
  0.00000000E+00  0.00000000E+00  0.00000000E+00
  0.00000000E+00  0.00000000E+00  0.00000000E+00
  0.00000000E+00  0.00000000E+00  0.00000000E+00
  0.00000000E+00  0.00000000E+00  0.00000000E+00
